Route #1: 56 152 105 116 37
Route #2: 143 41 17 61 101
Route #3: 67 4 35 54 110 38
Route #4: 140 85 144 53 123 98
Route #5: 
Route #6: 44 124 130 104 127 145 46 19 27
Route #7: 72 48 33 79 74 25 138 52 107 18 34
Route #8: 6 121 135 21 23 31 154 50 133 131 55 115 95
Route #9: 32 42 3 106 73 97 62 142 128 26 120 14 49
Route #10: 84 30 22 155 134 10 39 58 29 114 12 11 82 113 151
Route #11: 122 69 99 93 87 65 103 36 68 16 20 75 118 147 15
Route #12: 148 59 156 92 137 7 28 66 94 86 111 132 102 96 150 8 149 71
Route #13: 64 141 43 47 126 1 117 9 108 40 80 146 78 125 139 70 24 13
Route #14: 63 88 57 5 153 76 136 112 89 81 109 60 119 2 77 45 83 90 51 100 91 129
Cost: 17246.51
